result&benchmarks/Data/Ex1/verify/Output/afterrec_2calls-1_process_dc_iter1Output/Counterexample.2.smt2
(set-info :source |printed by MathSAT|)
(declare-fun |f::n__param__@2| () (_ BitVec 32))
(declare-fun |f::n@2| () (_ BitVec 32))
(declare-fun |f2::n__param__@2| () (_ BitVec 32))
(declare-fun |f2::n@2| () (_ BitVec 32))
(declare-fun |f::n__param__@3| () (_ BitVec 32))
(declare-fun |f::n@3| () (_ BitVec 32))
(assert (let ((.def_13 (= |f::n__param__@2| |f::n@2|)))(let ((.def_11 (= |f::n__param__@2| (_ bv4 32))))(let ((.def_76 (and .def_11 .def_13)))(let ((.def_15 (bvslt (_ bv2 32) |f::n@2|)))(let ((.def_77 (and .def_15 .def_76)))(let ((.def_24 (bvadd (_ bv4294967295 32) |f::n@2|)))(let ((.def_26 (= .def_24 |f2::n__param__@2|)))(let ((.def_78 (and .def_26 .def_77)))(let ((.def_28 (= |f2::n__param__@2| |f2::n@2|)))(let ((.def_79 (and .def_28 .def_78)))(let ((.def_29 (bvslt (_ bv2 32) |f2::n@2|)))(let ((.def_80 (and .def_29 .def_79)))(let ((.def_36 (bvadd (_ bv4294967295 32) |f2::n@2|)))(let ((.def_38 (= .def_36 |f::n__param__@3|)))(let ((.def_81 (and .def_38 .def_80)))(let ((.def_62 (= |f::n__param__@3| |f::n@3|)))(let ((.def_82 (and .def_62 .def_81)))(let ((.def_63 (bvslt (_ bv2 32) |f::n@3|)))(let ((.def_65 (not .def_63)))(let ((.def_83 (and .def_65 .def_82))).def_83)))))))))))))))))))))