result&benchmarks/Data/Ex1/verify/Output/afterrec_2calls-1_process_dc_iter1Output/Counterexample.2.txt
none:	N69 -{INIT GLOBAL VARS}-> N73
/usr/include/assert.h, lines 69-71:	N73 -{void __assert_fail(const char *__assertion, const char *__file, unsigned int __line, const char *__function);}-> N74
/usr/include/assert.h, lines 74-76:	N74 -{void __assert_perror_fail(int __errnum, const char *__file, unsigned int __line, const char *__function);}-> N75
/usr/include/assert.h, lines 81-82:	N75 -{void __assert(const char *__assertion, const char *__file, int __line);}-> N76
/usr/lib/gcc/x86_64-linux-gnu/11/include/stddef.h, line 209:	N76 -{typedef unsigned long int size_t;}-> N77
/usr/lib/gcc/x86_64-linux-gnu/11/include/stddef.h, line 321:	N77 -{typedef int wchar_t;}-> N78
/usr/include/stdlib.h, lines 59-63:	N78 -{struct __anon_type_div_t {   int quot;   int rem; } ;}-> N79
/usr/include/stdlib.h, lines 59-63:	N79 -{typedef struct __anon_type_div_t div_t;}-> N80
/usr/include/stdlib.h, lines 67-71:	N80 -{struct __anon_type_ldiv_t {   long int quot;   long int rem; } ;}-> N81
/usr/include/stdlib.h, lines 67-71:	N81 -{typedef struct __anon_type_ldiv_t ldiv_t;}-> N82
/usr/include/stdlib.h, lines 77-81:	N82 -{struct __anon_type_lldiv_t {   long long int quot;   long long int rem; } ;}-> N83
/usr/include/stdlib.h, lines 77-81:	N83 -{typedef struct __anon_type_lldiv_t lldiv_t;}-> N84
/usr/include/stdlib.h, line 98:	N84 -{size_t __ctype_get_mb_cur_max();}-> N85
/usr/include/stdlib.h, lines 102-103:	N85 -{double atof(const char *__nptr);}-> N86
/usr/include/stdlib.h, lines 105-106:	N86 -{int atoi(const char *__nptr);}-> N87
/usr/include/stdlib.h, lines 108-109:	N87 -{long int atol(const char *__nptr);}-> N88
/usr/include/stdlib.h, lines 113-114:	N88 -{long long int atoll(const char *__nptr);}-> N89
/usr/include/stdlib.h, lines 118-120:	N89 -{double strtod(const char *__nptr, char **__endptr);}-> N90
/usr/include/stdlib.h, lines 124-125:	N90 -{float strtof(const char *__nptr, char **__endptr);}-> N91
/usr/include/stdlib.h, lines 127-129:	N91 -{long double strtold(const char *__nptr, char **__endptr);}-> N92
/usr/include/stdlib.h, lines 177-179:	N92 -{long int strtol(const char *__nptr, char **__endptr, int __base);}-> N93
/usr/include/stdlib.h, lines 181-183:	N93 -{unsigned long int strtoul(const char *__nptr, char **__endptr, int __base);}-> N94
/usr/include/stdlib.h, lines 188-190:	N94 -{long long int strtoq(const char *__nptr, char **__endptr, int __base);}-> N95
/usr/include/stdlib.h, lines 193-195:	N95 -{unsigned long long int strtouq(const char *__nptr, char **__endptr, int __base);}-> N96
/usr/include/stdlib.h, lines 201-203:	N96 -{long long int strtoll(const char *__nptr, char **__endptr, int __base);}-> N97
/usr/include/stdlib.h, lines 206-208:	N97 -{unsigned long long int strtoull(const char *__nptr, char **__endptr, int __base);}-> N98
/usr/include/stdlib.h, line 386:	N98 -{char *l64a(long int __n);}-> N99
/usr/include/stdlib.h, lines 389-390:	N99 -{long int a64l(const char *__s);}-> N100
/usr/include/x86_64-linux-gnu/bits/types.h, line 31:	N100 -{typedef unsigned char __u_char;}-> N101
/usr/include/x86_64-linux-gnu/bits/types.h, line 32:	N101 -{typedef unsigned short int __u_short;}-> N102
/usr/include/x86_64-linux-gnu/bits/types.h, line 33:	N102 -{typedef unsigned int __u_int;}-> N103
/usr/include/x86_64-linux-gnu/bits/types.h, line 34:	N103 -{typedef unsigned long int __u_long;}-> N104
/usr/include/x86_64-linux-gnu/bits/types.h, line 37:	N104 -{typedef signed char __int8_t;}-> N105
/usr/include/x86_64-linux-gnu/bits/types.h, line 38:	N105 -{typedef unsigned char __uint8_t;}-> N106
/usr/include/x86_64-linux-gnu/bits/types.h, line 39:	N106 -{typedef signed short int __int16_t;}-> N107
/usr/include/x86_64-linux-gnu/bits/types.h, line 40:	N107 -{typedef unsigned short int __uint16_t;}-> N108
/usr/include/x86_64-linux-gnu/bits/types.h, line 41:	N108 -{typedef signed int __int32_t;}-> N109
/usr/include/x86_64-linux-gnu/bits/types.h, line 42:	N109 -{typedef unsigned int __uint32_t;}-> N110
/usr/include/x86_64-linux-gnu/bits/types.h, line 44:	N110 -{typedef signed long int __int64_t;}-> N111
/usr/include/x86_64-linux-gnu/bits/types.h, line 45:	N111 -{typedef unsigned long int __uint64_t;}-> N112
/usr/include/x86_64-linux-gnu/bits/types.h, line 52:	N112 -{typedef __int8_t __int_least8_t;}-> N113
/usr/include/x86_64-linux-gnu/bits/types.h, line 53:	N113 -{typedef __uint8_t __uint_least8_t;}-> N114
/usr/include/x86_64-linux-gnu/bits/types.h, line 54:	N114 -{typedef __int16_t __int_least16_t;}-> N115
/usr/include/x86_64-linux-gnu/bits/types.h, line 55:	N115 -{typedef __uint16_t __uint_least16_t;}-> N116
/usr/include/x86_64-linux-gnu/bits/types.h, line 56:	N116 -{typedef __int32_t __int_least32_t;}-> N117
/usr/include/x86_64-linux-gnu/bits/types.h, line 57:	N117 -{typedef __uint32_t __uint_least32_t;}-> N118
/usr/include/x86_64-linux-gnu/bits/types.h, line 58:	N118 -{typedef __int64_t __int_least64_t;}-> N119
/usr/include/x86_64-linux-gnu/bits/types.h, line 59:	N119 -{typedef __uint64_t __uint_least64_t;}-> N120
/usr/include/x86_64-linux-gnu/bits/types.h, line 63:	N120 -{typedef long int __quad_t;}-> N121
/usr/include/x86_64-linux-gnu/bits/types.h, line 64:	N121 -{typedef unsigned long int __u_quad_t;}-> N122
/usr/include/x86_64-linux-gnu/bits/types.h, line 72:	N122 -{typedef long int __intmax_t;}-> N123
/usr/include/x86_64-linux-gnu/bits/types.h, line 73:	N123 -{typedef unsigned long int __uintmax_t;}-> N124
/usr/include/x86_64-linux-gnu/bits/types.h, line 145:	N124 -{typedef unsigned long int __dev_t;}-> N125
/usr/include/x86_64-linux-gnu/bits/types.h, line 146:	N125 -{typedef unsigned int __uid_t;}-> N126
/usr/include/x86_64-linux-gnu/bits/types.h, line 147:	N126 -{typedef unsigned int __gid_t;}-> N127
/usr/include/x86_64-linux-gnu/bits/types.h, line 148:	N127 -{typedef unsigned long int __ino_t;}-> N128
/usr/include/x86_64-linux-gnu/bits/types.h, line 149:	N128 -{typedef unsigned long int __ino64_t;}-> N129
/usr/include/x86_64-linux-gnu/bits/types.h, line 150:	N129 -{typedef unsigned int __mode_t;}-> N130
/usr/include/x86_64-linux-gnu/bits/types.h, line 151:	N130 -{typedef unsigned long int __nlink_t;}-> N131
/usr/include/x86_64-linux-gnu/bits/types.h, line 152:	N131 -{typedef long int __off_t;}-> N132
/usr/include/x86_64-linux-gnu/bits/types.h, line 153:	N132 -{typedef long int __off64_t;}-> N133
/usr/include/x86_64-linux-gnu/bits/types.h, line 154:	N133 -{typedef int __pid_t;}-> N134
/usr/include/x86_64-linux-gnu/bits/types.h, line 155:	N134 -{struct __anon_type___fsid_t {   int __val[2]; } ;}-> N135
/usr/include/x86_64-linux-gnu/bits/types.h, line 155:	N135 -{typedef struct __anon_type___fsid_t __fsid_t;}-> N136
/usr/include/x86_64-linux-gnu/bits/types.h, line 156:	N136 -{typedef long int __clock_t;}-> N137
/usr/include/x86_64-linux-gnu/bits/types.h, line 157:	N137 -{typedef unsigned long int __rlim_t;}-> N138
/usr/include/x86_64-linux-gnu/bits/types.h, line 158:	N138 -{typedef unsigned long int __rlim64_t;}-> N139
/usr/include/x86_64-linux-gnu/bits/types.h, line 159:	N139 -{typedef unsigned int __id_t;}-> N140
/usr/include/x86_64-linux-gnu/bits/types.h, line 160:	N140 -{typedef long int __time_t;}-> N141
/usr/include/x86_64-linux-gnu/bits/types.h, line 161:	N141 -{typedef unsigned int __useconds_t;}-> N142
/usr/include/x86_64-linux-gnu/bits/types.h, line 162:	N142 -{typedef long int __suseconds_t;}-> N143
/usr/include/x86_64-linux-gnu/bits/types.h, line 163:	N143 -{typedef long int __suseconds64_t;}-> N144
/usr/include/x86_64-linux-gnu/bits/types.h, line 165:	N144 -{typedef int __daddr_t;}-> N145
/usr/include/x86_64-linux-gnu/bits/types.h, line 166:	N145 -{typedef int __key_t;}-> N146
/usr/include/x86_64-linux-gnu/bits/types.h, line 169:	N146 -{typedef int __clockid_t;}-> N147
/usr/include/x86_64-linux-gnu/bits/types.h, line 172:	N147 -{typedef void *__timer_t;}-> N148
/usr/include/x86_64-linux-gnu/bits/types.h, line 175:	N148 -{typedef long int __blksize_t;}-> N149
/usr/include/x86_64-linux-gnu/bits/types.h, line 180:	N149 -{typedef long int __blkcnt_t;}-> N150
/usr/include/x86_64-linux-gnu/bits/types.h, line 181:	N150 -{typedef long int __blkcnt64_t;}-> N151
/usr/include/x86_64-linux-gnu/bits/types.h, line 184:	N151 -{typedef unsigned long int __fsblkcnt_t;}-> N152
/usr/include/x86_64-linux-gnu/bits/types.h, line 185:	N152 -{typedef unsigned long int __fsblkcnt64_t;}-> N153
/usr/include/x86_64-linux-gnu/bits/types.h, line 188:	N153 -{typedef unsigned long int __fsfilcnt_t;}-> N154
/usr/include/x86_64-linux-gnu/bits/types.h, line 189:	N154 -{typedef unsigned long int __fsfilcnt64_t;}-> N155
/usr/include/x86_64-linux-gnu/bits/types.h, line 192:	N155 -{typedef long int __fsword_t;}-> N156
/usr/include/x86_64-linux-gnu/bits/types.h, line 194:	N156 -{typedef long int __ssize_t;}-> N157
/usr/include/x86_64-linux-gnu/bits/types.h, line 197:	N157 -{typedef long int __syscall_slong_t;}-> N158
/usr/include/x86_64-linux-gnu/bits/types.h, line 199:	N158 -{typedef unsigned long int __syscall_ulong_t;}-> N159
/usr/include/x86_64-linux-gnu/bits/types.h, line 203:	N159 -{typedef __off64_t __loff_t;}-> N160
/usr/include/x86_64-linux-gnu/bits/types.h, line 204:	N160 -{typedef char *__caddr_t;}-> N161
/usr/include/x86_64-linux-gnu/bits/types.h, line 207:	N161 -{typedef long int __intptr_t;}-> N162
/usr/include/x86_64-linux-gnu/bits/types.h, line 210:	N162 -{typedef unsigned int __socklen_t;}-> N163
/usr/include/x86_64-linux-gnu/bits/types.h, line 215:	N163 -{typedef int __sig_atomic_t;}-> N164
/usr/include/x86_64-linux-gnu/sys/types.h, line 33:	N164 -{typedef __u_char u_char;}-> N165
/usr/include/x86_64-linux-gnu/sys/types.h, line 34:	N165 -{typedef __u_short u_short;}-> N166
/usr/include/x86_64-linux-gnu/sys/types.h, line 35:	N166 -{typedef __u_int u_int;}-> N167
/usr/include/x86_64-linux-gnu/sys/types.h, line 36:	N167 -{typedef __u_long u_long;}-> N168
/usr/include/x86_64-linux-gnu/sys/types.h, line 37:	N168 -{typedef __quad_t quad_t;}-> N169
/usr/include/x86_64-linux-gnu/sys/types.h, line 38:	N169 -{typedef __u_quad_t u_quad_t;}-> N170
/usr/include/x86_64-linux-gnu/sys/types.h, line 39:	N170 -{typedef __fsid_t fsid_t;}-> N171
/usr/include/x86_64-linux-gnu/sys/types.h, line 42:	N171 -{typedef __loff_t loff_t;}-> N172
/usr/include/x86_64-linux-gnu/sys/types.h, line 47:	N172 -{typedef __ino_t ino_t;}-> N173
/usr/include/x86_64-linux-gnu/sys/types.h, line 59:	N173 -{typedef __dev_t dev_t;}-> N174
/usr/include/x86_64-linux-gnu/sys/types.h, line 64:	N174 -{typedef __gid_t gid_t;}-> N175
/usr/include/x86_64-linux-gnu/sys/types.h, line 69:	N175 -{typedef __mode_t mode_t;}-> N176
/usr/include/x86_64-linux-gnu/sys/types.h, line 74:	N176 -{typedef __nlink_t nlink_t;}-> N177
/usr/include/x86_64-linux-gnu/sys/types.h, line 79:	N177 -{typedef __uid_t uid_t;}-> N178
/usr/include/x86_64-linux-gnu/sys/types.h, line 85:	N178 -{typedef __off_t off_t;}-> N179
/usr/include/x86_64-linux-gnu/sys/types.h, line 97:	N179 -{typedef __pid_t pid_t;}-> N180
/usr/include/x86_64-linux-gnu/sys/types.h, line 103:	N180 -{typedef __id_t id_t;}-> N181
/usr/include/x86_64-linux-gnu/sys/types.h, line 108:	N181 -{typedef __ssize_t ssize_t;}-> N182
/usr/include/x86_64-linux-gnu/sys/types.h, line 114:	N182 -{typedef __daddr_t daddr_t;}-> N183
/usr/include/x86_64-linux-gnu/sys/types.h, line 115:	N183 -{typedef __caddr_t caddr_t;}-> N184
/usr/include/x86_64-linux-gnu/sys/types.h, line 121:	N184 -{typedef __key_t key_t;}-> N185
/usr/include/x86_64-linux-gnu/bits/types/clock_t.h, line 7:	N185 -{typedef __clock_t clock_t;}-> N186
/usr/include/x86_64-linux-gnu/bits/types/clockid_t.h, line 7:	N186 -{typedef __clockid_t clockid_t;}-> N187
/usr/include/x86_64-linux-gnu/bits/types/time_t.h, line 10:	N187 -{typedef __time_t time_t;}-> N188
/usr/include/x86_64-linux-gnu/bits/types/timer_t.h, line 7:	N188 -{typedef __timer_t timer_t;}-> N189
/usr/include/x86_64-linux-gnu/sys/types.h, line 148:	N189 -{typedef unsigned long int ulong;}-> N190
/usr/include/x86_64-linux-gnu/sys/types.h, line 149:	N190 -{typedef unsigned short int ushort;}-> N191
/usr/include/x86_64-linux-gnu/sys/types.h, line 150:	N191 -{typedef unsigned int uint;}-> N192
/usr/include/x86_64-linux-gnu/bits/stdint-intn.h, line 24:	N192 -{typedef __int8_t int8_t;}-> N193
/usr/include/x86_64-linux-gnu/bits/stdint-intn.h, line 25:	N193 -{typedef __int16_t int16_t;}-> N194
/usr/include/x86_64-linux-gnu/bits/stdint-intn.h, line 26:	N194 -{typedef __int32_t int32_t;}-> N195
/usr/include/x86_64-linux-gnu/bits/stdint-intn.h, line 27:	N195 -{typedef __int64_t int64_t;}-> N196
/usr/include/x86_64-linux-gnu/sys/types.h, line 158:	N196 -{typedef __uint8_t u_int8_t;}-> N197
/usr/include/x86_64-linux-gnu/sys/types.h, line 159:	N197 -{typedef __uint16_t u_int16_t;}-> N198
/usr/include/x86_64-linux-gnu/sys/types.h, line 160:	N198 -{typedef __uint32_t u_int32_t;}-> N199
/usr/include/x86_64-linux-gnu/sys/types.h, line 161:	N199 -{typedef __uint64_t u_int64_t;}-> N200
/usr/include/x86_64-linux-gnu/sys/types.h, line 164:	N200 -{typedef signed int register_t;}-> N201
/usr/include/x86_64-linux-gnu/bits/byteswap.h, lines 33-41:	N201 -{__uint16_t __bswap_16(__uint16_t __bsx);}-> N202
/usr/include/x86_64-linux-gnu/bits/byteswap.h, lines 48-56:	N202 -{__uint32_t __bswap_32(__uint32_t __bsx);}-> N203
/usr/include/x86_64-linux-gnu/bits/byteswap.h, lines 69-77:	N203 -{__uint64_t __bswap_64(__uint64_t __bsx);}-> N204
/usr/include/x86_64-linux-gnu/bits/uintn-identity.h, lines 32-36:	N204 -{__uint16_t __uint16_identity(__uint16_t __x);}-> N205
/usr/include/x86_64-linux-gnu/bits/uintn-identity.h, lines 38-42:	N205 -{__uint32_t __uint32_identity(__uint32_t __x);}-> N206
/usr/include/x86_64-linux-gnu/bits/uintn-identity.h, lines 44-48:	N206 -{__uint64_t __uint64_identity(__uint64_t __x);}-> N207
/usr/include/x86_64-linux-gnu/bits/types/__sigset_t.h, lines 5-8:	N207 -{struct __anon_type___sigset_t {   unsigned long int __val[32UL]; } ;}-> N208
/usr/include/x86_64-linux-gnu/bits/types/__sigset_t.h, lines 5-8:	N208 -{typedef struct __anon_type___sigset_t __sigset_t;}-> N209
/usr/include/x86_64-linux-gnu/bits/types/sigset_t.h, line 7:	N209 -{typedef __sigset_t sigset_t;}-> N210
/usr/include/x86_64-linux-gnu/bits/types/struct_timeval.h, lines 8-17:	N210 -{struct timeval {   __time_t tv_sec;   __suseconds_t tv_usec; } ;}-> N211
/usr/include/x86_64-linux-gnu/bits/types/struct_timespec.h, lines 11-31:	N211 -{struct timespec {   __time_t tv_sec;   __syscall_slong_t tv_nsec; } ;}-> N212
/usr/include/x86_64-linux-gnu/sys/select.h, line 43:	N212 -{typedef __suseconds_t suseconds_t;}-> N213
/usr/include/x86_64-linux-gnu/sys/select.h, line 49:	N213 -{typedef long int __fd_mask;}-> N214
/usr/include/x86_64-linux-gnu/sys/select.h, lines 59-70:	N214 -{struct __anon_type_fd_set {   __fd_mask __fds_bits[32]; } ;}-> N215
/usr/include/x86_64-linux-gnu/sys/select.h, lines 59-70:	N215 -{typedef struct __anon_type_fd_set fd_set;}-> N216
/usr/include/x86_64-linux-gnu/sys/select.h, line 77:	N216 -{typedef __fd_mask fd_mask;}-> N217
/usr/include/x86_64-linux-gnu/sys/select.h, lines 102-105:	N217 -{int select(int __nfds, fd_set *__readfds, fd_set *__writefds, fd_set *__exceptfds, struct timeval *__timeout);}-> N218
/usr/include/x86_64-linux-gnu/sys/select.h, lines 127-131:	N218 -{int pselect(int __nfds, fd_set *__readfds, fd_set *__writefds, fd_set *__exceptfds, const struct timespec *__timeout, const __sigset_t *__sigmask);}-> N219
/usr/include/x86_64-linux-gnu/sys/types.h, line 185:	N219 -{typedef __blksize_t blksize_t;}-> N220
/usr/include/x86_64-linux-gnu/sys/types.h, line 192:	N220 -{typedef __blkcnt_t blkcnt_t;}-> N221
/usr/include/x86_64-linux-gnu/sys/types.h, line 196:	N221 -{typedef __fsblkcnt_t fsblkcnt_t;}-> N222
/usr/include/x86_64-linux-gnu/sys/types.h, line 200:	N222 -{typedef __fsfilcnt_t fsfilcnt_t;}-> N223
/usr/include/x86_64-linux-gnu/bits/atomic_wide_counter.h, lines 28-32:	N223 -{struct __anon_type_0 {   unsigned int __low;   unsigned int __high; } ;}-> N224
/usr/include/x86_64-linux-gnu/bits/atomic_wide_counter.h, lines 25-33:	N224 -{union __anon_type___atomic_wide_counter {   unsigned long long int __value64;   struct __anon_type_0 __value32; } ;}-> N225
/usr/include/x86_64-linux-gnu/bits/atomic_wide_counter.h, lines 25-33:	N225 -{typedef union __anon_type___atomic_wide_counter __atomic_wide_counter;}-> N226
/usr/include/x86_64-linux-gnu/bits/thread-shared-types.h, lines 51-55:	N226 -{struct __pthread_internal_list {   struct __pthread_internal_list *__prev;   struct __pthread_internal_list *__next; } ;}-> N227
/usr/include/x86_64-linux-gnu/bits/thread-shared-types.h, lines 51-55:	N227 -{typedef struct __pthread_internal_list __pthread_list_t;}-> N228
/usr/include/x86_64-linux-gnu/bits/thread-shared-types.h, lines 57-60:	N228 -{struct __pthread_internal_slist {   struct __pthread_internal_slist *__next; } ;}-> N229
/usr/include/x86_64-linux-gnu/bits/thread-shared-types.h, lines 57-60:	N229 -{typedef struct __pthread_internal_slist __pthread_slist_t;}-> N230
/usr/include/x86_64-linux-gnu/bits/struct_mutex.h, lines 22-53:	N230 -{struct __pthread_mutex_s {   int __lock;   unsigned int __count;   int __owner;   unsigned int __nusers;   int __kind;   short __spins;   short __elision;   __pthread_list_t __list; } ;}-> N231
/usr/include/x86_64-linux-gnu/bits/struct_rwlock.h, lines 23-55:	N231 -{struct __pthread_rwlock_arch_t {   unsigned int __readers;   unsigned int __writers;   unsigned int __wrphase_futex;   unsigned int __writers_futex;   unsigned int __pad3;   unsigned int __pad4;   int __cur_writer;   int __shared;   signed char __rwelision;   unsigned char __pad1[7];   unsigned long int __pad2;   unsigned int __flags; } ;}-> N232
/usr/include/x86_64-linux-gnu/bits/thread-shared-types.h, lines 94-103:	N232 -{struct __pthread_cond_s {   __atomic_wide_counter __wseq;   __atomic_wide_counter __g1_start;   unsigned int __g_refs[2];   unsigned int __g_size[2];   unsigned int __g1_orig_size;   unsigned int __wrefs;   unsigned int __g_signals[2]; } ;}-> N233
/usr/include/x86_64-linux-gnu/bits/thread-shared-types.h, line 105:	N233 -{typedef unsigned int __tss_t;}-> N234
/usr/include/x86_64-linux-gnu/bits/thread-shared-types.h, line 106:	N234 -{typedef unsigned long int __thrd_t;}-> N235
/usr/include/x86_64-linux-gnu/bits/thread-shared-types.h, lines 108-111:	N235 -{struct __anon_type___once_flag {   int __data; } ;}-> N236
/usr/include/x86_64-linux-gnu/bits/thread-shared-types.h, lines 108-111:	N236 -{typedef struct __anon_type___once_flag __once_flag;}-> N237
/usr/include/x86_64-linux-gnu/bits/pthreadtypes.h, line 27:	N237 -{typedef unsigned long int pthread_t;}-> N238
/usr/include/x86_64-linux-gnu/bits/pthreadtypes.h, lines 32-36:	N238 -{union __anon_type_pthread_mutexattr_t {   char __size[4];   int __align; } ;}-> N239
/usr/include/x86_64-linux-gnu/bits/pthreadtypes.h, lines 32-36:	N239 -{typedef union __anon_type_pthread_mutexattr_t pthread_mutexattr_t;}-> N240
/usr/include/x86_64-linux-gnu/bits/pthreadtypes.h, lines 41-45:	N240 -{union __anon_type_pthread_condattr_t {   char __size[4];   int __align; } ;}-> N241
/usr/include/x86_64-linux-gnu/bits/pthreadtypes.h, lines 41-45:	N241 -{typedef union __anon_type_pthread_mutexattr_t pthread_condattr_t;}-> N242
/usr/include/x86_64-linux-gnu/bits/pthreadtypes.h, line 49:	N242 -{typedef unsigned int pthread_key_t;}-> N243
/usr/include/x86_64-linux-gnu/bits/pthreadtypes.h, line 53:	N243 -{typedef int pthread_once_t;}-> N244
/usr/include/x86_64-linux-gnu/bits/pthreadtypes.h, lines 56-60:	N244 -{union pthread_attr_t {   char __size[56];   long int __align; } ;}-> N245
/usr/include/x86_64-linux-gnu/bits/pthreadtypes.h, line 62:	N245 -{typedef union pthread_attr_t pthread_attr_t;}-> N246
/usr/include/x86_64-linux-gnu/bits/pthreadtypes.h, lines 67-72:	N246 -{union __anon_type_pthread_mutex_t {   struct __pthread_mutex_s __data;   char __size[40];   long int __align; } ;}-> N247
/usr/include/x86_64-linux-gnu/bits/pthreadtypes.h, lines 67-72:	N247 -{typedef union __anon_type_pthread_mutex_t pthread_mutex_t;}-> N248
/usr/include/x86_64-linux-gnu/bits/pthreadtypes.h, lines 75-80:	N248 -{union __anon_type_pthread_cond_t {   struct __pthread_cond_s __data;   char __size[48];   long long int __align; } ;}-> N249
/usr/include/x86_64-linux-gnu/bits/pthreadtypes.h, lines 75-80:	N249 -{typedef union __anon_type_pthread_cond_t pthread_cond_t;}-> N250
/usr/include/x86_64-linux-gnu/bits/pthreadtypes.h, lines 86-91:	N250 -{union __anon_type_pthread_rwlock_t {   struct __pthread_rwlock_arch_t __data;   char __size[56];   long int __align; } ;}-> N251
/usr/include/x86_64-linux-gnu/bits/pthreadtypes.h, lines 86-91:	N251 -{typedef union __anon_type_pthread_rwlock_t pthread_rwlock_t;}-> N252
/usr/include/x86_64-linux-gnu/bits/pthreadtypes.h, lines 93-97:	N252 -{union __anon_type_pthread_rwlockattr_t {   char __size[8];   long int __align; } ;}-> N253
/usr/include/x86_64-linux-gnu/bits/pthreadtypes.h, lines 93-97:	N253 -{typedef union __anon_type_pthread_rwlockattr_t pthread_rwlockattr_t;}-> N254
/usr/include/x86_64-linux-gnu/bits/pthreadtypes.h, line 103:	N254 -{typedef volatile int pthread_spinlock_t;}-> N255
/usr/include/x86_64-linux-gnu/bits/pthreadtypes.h, lines 108-112:	N255 -{union __anon_type_pthread_barrier_t {   char __size[32];   long int __align; } ;}-> N256
/usr/include/x86_64-linux-gnu/bits/pthreadtypes.h, lines 108-112:	N256 -{typedef union __anon_type_pthread_barrier_t pthread_barrier_t;}-> N257
/usr/include/x86_64-linux-gnu/bits/pthreadtypes.h, lines 114-118:	N257 -{union __anon_type_pthread_barrierattr_t {   char __size[4];   int __align; } ;}-> N258
/usr/include/x86_64-linux-gnu/bits/pthreadtypes.h, lines 114-118:	N258 -{typedef union __anon_type_pthread_mutexattr_t pthread_barrierattr_t;}-> N259
/usr/include/stdlib.h, line 402:	N259 -{long int random();}-> N260
/usr/include/stdlib.h, line 405:	N260 -{void srandom(unsigned int __seed);}-> N261
/usr/include/stdlib.h, lines 411-412:	N261 -{char *initstate(unsigned int __seed, char *__statebuf, size_t __statelen);}-> N262
/usr/include/stdlib.h, line 416:	N262 -{char *setstate(char *__statebuf);}-> N263
/usr/include/stdlib.h, lines 424-433:	N263 -{struct random_data {   int32_t *fptr;   int32_t *rptr;   int32_t *state;   int rand_type;   int rand_deg;   int rand_sep;   int32_t *end_ptr; } ;}-> N264
/usr/include/stdlib.h, lines 435-436:	N264 -{int random_r(struct random_data *__buf, int32_t *__result);}-> N265
/usr/include/stdlib.h, lines 438-439:	N265 -{int srandom_r(unsigned int __seed, struct random_data *__buf);}-> N266
/usr/include/stdlib.h, lines 441-444:	N266 -{int initstate_r(unsigned int __seed, char *__statebuf, size_t __statelen, struct random_data *__buf);}-> N267
/usr/include/stdlib.h, lines 446-448:	N267 -{int setstate_r(char *__statebuf, struct random_data *__buf);}-> N268
/usr/include/stdlib.h, line 454:	N268 -{int rand();}-> N269
/usr/include/stdlib.h, line 456:	N269 -{void srand(unsigned int __seed);}-> N270
/usr/include/stdlib.h, line 460:	N270 -{int rand_r(unsigned int *__seed);}-> N271
/usr/include/stdlib.h, line 468:	N271 -{double drand48();}-> N272
/usr/include/stdlib.h, line 469:	N272 -{double erand48(unsigned short int __xsubi[3]);}-> N273
/usr/include/stdlib.h, line 472:	N273 -{long int lrand48();}-> N274
/usr/include/stdlib.h, lines 473-474:	N274 -{long int nrand48(unsigned short int __xsubi[3]);}-> N275
/usr/include/stdlib.h, line 477:	N275 -{long int mrand48();}-> N276
/usr/include/stdlib.h, lines 478-479:	N276 -{long int jrand48(unsigned short int __xsubi[3]);}-> N277
/usr/include/stdlib.h, line 482:	N277 -{void srand48(long int __seedval);}-> N278
/usr/include/stdlib.h, lines 483-484:	N278 -{unsigned short int *seed48(unsigned short int __seed16v[3]);}-> N279
/usr/include/stdlib.h, line 485:	N279 -{void lcong48(unsigned short int __param[7]);}-> N280
/usr/include/stdlib.h, lines 491-499:	N280 -{struct drand48_data {   unsigned short int __x[3];   unsigned short int __old_x[3];   unsigned short int __c;   unsigned short int __init;   unsigned long long int __a; } ;}-> N281
/usr/include/stdlib.h, lines 502-503:	N281 -{int drand48_r(struct drand48_data *__buffer, double *__result);}-> N282
/usr/include/stdlib.h, lines 504-506:	N282 -{int erand48_r(unsigned short int __xsubi[3], struct drand48_data *__buffer, double *__result);}-> N283
/usr/include/stdlib.h, lines 509-511:	N283 -{int lrand48_r(struct drand48_data *__buffer, long int *__result);}-> N284
/usr/include/stdlib.h, lines 512-515:	N284 -{int nrand48_r(unsigned short int __xsubi[3], struct drand48_data *__buffer, long int *__result);}-> N285
/usr/include/stdlib.h, lines 518-520:	N285 -{int mrand48_r(struct drand48_data *__buffer, long int *__result);}-> N286
/usr/include/stdlib.h, lines 521-524:	N286 -{int jrand48_r(unsigned short int __xsubi[3], struct drand48_data *__buffer, long int *__result);}-> N287
/usr/include/stdlib.h, lines 527-528:	N287 -{int srand48_r(long int __seedval, struct drand48_data *__buffer);}-> N288
/usr/include/stdlib.h, lines 530-531:	N288 -{int seed48_r(unsigned short int __seed16v[3], struct drand48_data *__buffer);}-> N289
/usr/include/stdlib.h, lines 533-535:	N289 -{int lcong48_r(unsigned short int __param[7], struct drand48_data *__buffer);}-> N290
/usr/include/stdlib.h, lines 540-541:	N290 -{void *malloc(size_t __size);}-> N291
/usr/include/stdlib.h, lines 543-544:	N291 -{void *calloc(size_t __nmemb, size_t __size);}-> N292
/usr/include/stdlib.h, lines 551-552:	N292 -{void *realloc(void *__ptr, size_t __size);}-> N293
/usr/include/stdlib.h, line 555:	N293 -{void free(void *__ptr);}-> N294
/usr/include/stdlib.h, lines 563-566:	N294 -{void *reallocarray(void *__ptr, size_t __nmemb, size_t __size);}-> N295
/usr/include/alloca.h, line 32:	N295 -{void *alloca(size_t __size);}-> N296
/usr/include/stdlib.h, lines 580-581:	N296 -{void *valloc(size_t __size);}-> N297
/usr/include/stdlib.h, lines 586-587:	N297 -{int posix_memalign(void **__memptr, size_t __alignment, size_t __size);}-> N298
/usr/include/stdlib.h, lines 592-594:	N298 -{void *aligned_alloc(size_t __alignment, size_t __size);}-> N299
/usr/include/stdlib.h, line 598:	N299 -{void abort();}-> N300
/usr/include/stdlib.h, line 602:	N300 -{int atexit(void (*__func)());}-> N301
/usr/include/stdlib.h, line 610:	N301 -{int at_quick_exit(void (*__func)());}-> N302
/usr/include/stdlib.h, lines 617-618:	N302 -{int on_exit(void (*__func)(int __status, void *__arg), void *__arg);}-> N303
/usr/include/stdlib.h, line 624:	N303 -{void exit(int __status);}-> N304
/usr/include/stdlib.h, line 630:	N304 -{void quick_exit(int __status);}-> N305
/usr/include/stdlib.h, line 636:	N305 -{void _Exit(int __status);}-> N306
/usr/include/stdlib.h, line 641:	N306 -{char *getenv(const char *__name);}-> N307
/usr/include/stdlib.h, line 654:	N307 -{int putenv(char *__string);}-> N308
/usr/include/stdlib.h, lines 660-661:	N308 -{int setenv(const char *__name, const char *__value, int __replace);}-> N309
/usr/include/stdlib.h, line 664:	N309 -{int unsetenv(const char *__name);}-> N310
/usr/include/stdlib.h, line 671:	N310 -{int clearenv();}-> N311
/usr/include/stdlib.h, line 682:	N311 -{char *mktemp(char *__template);}-> N312
/usr/include/stdlib.h, line 695:	N312 -{int mkstemp(char *__template);}-> N313
/usr/include/stdlib.h, line 717:	N313 -{int mkstemps(char *__template, int __suffixlen);}-> N314
/usr/include/stdlib.h, line 738:	N314 -{char *mkdtemp(char *__template);}-> N315
/usr/include/stdlib.h, line 791:	N315 -{int system(const char *__command);}-> N316
/usr/include/stdlib.h, lines 808-809:	N316 -{char *realpath(const char *__name, char *__resolved);}-> N317
/usr/include/stdlib.h, line 816:	N317 -{typedef int (*__compar_fn_t)(const void *, const void *);}-> N318
/usr/include/stdlib.h, lines 828-830:	N318 -{void *bsearch(const void *__key, const void *__base, size_t __nmemb, size_t __size, __compar_fn_t __compar);}-> N319
/usr/include/stdlib.h, lines 838-839:	N319 -{void qsort(void *__base, size_t __nmemb, size_t __size, __compar_fn_t __compar);}-> N320
/usr/include/stdlib.h, line 848:	N320 -{int abs(int __x);}-> N321
/usr/include/stdlib.h, line 849:	N321 -{long int labs(long int __x);}-> N322
/usr/include/stdlib.h, lines 852-853:	N322 -{long long int llabs(long long int __x);}-> N323
/usr/include/stdlib.h, lines 860-861:	N323 -{div_t div(int __numer, int __denom);}-> N324
/usr/include/stdlib.h, lines 862-863:	N324 -{ldiv_t ldiv(long int __numer, long int __denom);}-> N325
/usr/include/stdlib.h, lines 866-868:	N325 -{lldiv_t lldiv(long long int __numer, long long int __denom);}-> N326
/usr/include/stdlib.h, lines 880-881:	N326 -{char *ecvt(double __value, int __ndigit, int *__decpt, int *__sign);}-> N327
/usr/include/stdlib.h, lines 886-887:	N327 -{char *fcvt(double __value, int __ndigit, int *__decpt, int *__sign);}-> N328
/usr/include/stdlib.h, lines 892-893:	N328 -{char *gcvt(double __value, int __ndigit, char *__buf);}-> N329
/usr/include/stdlib.h, lines 898-900:	N329 -{char *qecvt(long double __value, int __ndigit, int *__decpt, int *__sign);}-> N330
/usr/include/stdlib.h, lines 901-903:	N330 -{char *qfcvt(long double __value, int __ndigit, int *__decpt, int *__sign);}-> N331
/usr/include/stdlib.h, lines 904-905:	N331 -{char *qgcvt(long double __value, int __ndigit, char *__buf);}-> N332
/usr/include/stdlib.h, lines 910-912:	N332 -{int ecvt_r(double __value, int __ndigit, int *__decpt, int *__sign, char *__buf, size_t __len);}-> N333
/usr/include/stdlib.h, lines 913-915:	N333 -{int fcvt_r(double __value, int __ndigit, int *__decpt, int *__sign, char *__buf, size_t __len);}-> N334
/usr/include/stdlib.h, lines 917-920:	N334 -{int qecvt_r(long double __value, int __ndigit, int *__decpt, int *__sign, char *__buf, size_t __len);}-> N335
/usr/include/stdlib.h, lines 921-924:	N335 -{int qfcvt_r(long double __value, int __ndigit, int *__decpt, int *__sign, char *__buf, size_t __len);}-> N336
/usr/include/stdlib.h, line 930:	N336 -{int mblen(const char *__s, size_t __n);}-> N337
/usr/include/stdlib.h, lines 933-934:	N337 -{int mbtowc(wchar_t *__pwc, const char *__s, size_t __n);}-> N338
/usr/include/stdlib.h, line 937:	N338 -{int wctomb(char *__s, wchar_t __wchar);}-> N339
/usr/include/stdlib.h, lines 941-943:	N339 -{size_t mbstowcs(wchar_t *__pwcs, const char *__s, size_t __n);}-> N340
/usr/include/stdlib.h, lines 945-949:	N340 -{size_t wcstombs(char *__s, const wchar_t *__pwcs, size_t __n);}-> N341
/usr/include/stdlib.h, line 956:	N341 -{int rpmatch(const char *__response);}-> N342
/usr/include/stdlib.h, lines 967-970:	N342 -{int getsubopt(char **__optionp, char * const *__tokens, char **__valuep);}-> N343
/usr/include/stdlib.h, lines 1013-1014:	N343 -{int getloadavg(double __loadavg[], int __nelem);}-> N344
line 4:	N344 -{void f2(int n);}-> N345
lines 6-13:	N345 -{void f(int n);}-> N346
lines 24-27:	N346 -{int main();}-> N347
none:	N347 -{Function start dummy edge}-> N70
line 25:	N70 -{f(4)}-> N31
none:	N31 -{Function start dummy edge}-> N32
	n == 4;
line 7:	N32 -{int n_local;}-> N33
	n == 4;
line 8:	N33 -{[2 < n]}-> N35
	n == 4;
	n == 4;
line 9:	N35 -{f2(n - 1)}-> N50
none:	N50 -{Function start dummy edge}-> N51
	n == 3;
line 16:	N51 -{int n_local;}-> N52
	n == 3;
line 17:	N52 -{[2 < n]}-> N54
	n == 3;
	n == 3;
line 18:	N54 -{f(n - 1)}-> N31
none:	N31 -{Function start dummy edge}-> N32
	n == 2;
line 7:	N32 -{int n_local;}-> N33
	n == 2;
line 8:	N33 -{[!(2 < n)]}-> N34
	n == 2;
	n == 2;
line 12:	N34 -{return;}-> N30
line 18:	N30 -{Return edge from f to f2: f(n - 1);}-> N55
line 19:	N55 -{int __CPAchecker_TMP_2;}-> N56
line 19:	N56 -{}-> N58
line 19:	N58 -{__CPAchecker_TMP_2 = 0;}-> N60
line 19:	N60 -{4UL;}-> N61
line 19:	N61 -{}-> N64
line 19:	N64 -{__assert_fail("0 && \"Assertion failed in f2\"", "/home/zyl/biVerify/CPA_DATA2/C/F/llmfix/realOutput/iterationTry/afterrec_2calls-1_process_dc_iter1.c", 19, "__PRETTY_FUNCTION__");}-> N349
